language ESSENCE' 1.0
letting lastdx=91
letting cage be [
[53,9,1,9,2,10,2,11,2,12,2],
[24,1,11,1,12,2,12,3,12,0,0],
[1,8,1,0,0, 0,0, 0,0, 0,0],
[13,16,6,0,0, 0,0, 0,0, 0,0],
[41,5,12,5,11,4,11,4,12,0,0],
[40,12,14,13,14,13,15,14,15,0,0],
[10,13,10,0,0, 0,0, 0,0, 0,0],
[50,9,15,10,15,10,14,10,13,0,0],
[3,7,12,0,0, 0,0, 0,0, 0,0],
[6,16,5,0,0, 0,0, 0,0, 0,0],
[24,11,1,10,1,12,1,0,0, 0,0],
[2,1,8,0,0, 0,0, 0,0, 0,0],
[28,3,15,3,14,2,14,0,0, 0,0],
[16,1,14,0,0, 0,0, 0,0, 0,0],
[28,15,1,16,1,16,2,16,3,16,4],
[38,5,14,5,13,4,13,3,13,0,0],
[5,12,7,12,8,0,0, 0,0, 0,0],
[29,16,12,15,12,14,12,13,12,13,11],
[8,15,7,0,0, 0,0, 0,0, 0,0],
[8,11,11,0,0, 0,0, 0,0, 0,0],
[8,16,15,0,0, 0,0, 0,0, 0,0],
[16,16,11,0,0, 0,0, 0,0, 0,0],
[24,16,10,16,9,15,9,0,0, 0,0],
[7,16,7,0,0, 0,0, 0,0, 0,0],
[46,6,14,6,13,6,12,6,11,0,0],
[22,12,4,11,4,0,0, 0,0, 0,0],
[41,8,9,7,9,7,10,6,10,5,10],
[20,8,16,9,16,10,16,0,0, 0,0],
[9,7,7,0,0, 0,0, 0,0, 0,0],
[39,7,11,8,11,8,10,9,10,9,11],
[1,9,14,0,0, 0,0, 0,0, 0,0],
[29,15,4,14,4,13,4,13,5,0,0],
[26,16,14,15,14,14,14,14,13,13,13],
[43,6,1,6,2,6,3,6,4,5,4],
[20,8,8,7,8,0,0, 0,0, 0,0],
[21,2,2,3,2,3,3,0,0, 0,0],
[27,13,6,13,7,14,7,0,0, 0,0],
[32,9,7,10,7,11,7,0,0, 0,0],
[59,3,8,3,7,2,7,1,7,1,6],
[45,3,1,4,1,4,2,5,2,5,1],
[29,5,5,6,5,7,5,8,5,0,0],
[10,12,3,0,0, 0,0, 0,0, 0,0],
[9,8,12,8,13,0,0, 0,0, 0,0],
[4,6,8,0,0, 0,0, 0,0, 0,0],
[24,8,15,8,14,0,0, 0,0, 0,0],
[15,3,6,0,0, 0,0, 0,0, 0,0],
[24,4,6,4,5,3,5,2,5,2,6],
[52,16,16,15,16,15,15,14,16,13,16],
[8,14,10,0,0, 0,0, 0,0, 0,0],
[16,3,9,2,9,2,8,0,0, 0,0],
[52,12,12,11,12,10,12,9,12,9,13],
[5,2,11,0,0, 0,0, 0,0, 0,0],
[16,4,14,4,15,0,0, 0,0, 0,0],
[27,9,6,8,6,8,7,0,0, 0,0],
[11,4,8,0,0, 0,0, 0,0, 0,0],
[35,5,16,6,16,6,15,5,15,0,0],
[40,14,3,13,3,13,2,14,2,0,0],
[41,11,15,11,16,12,16,12,15,0,0],
[22,11,13,11,14,12,13,0,0, 0,0],
[15,15,13,16,13,0,0, 0,0, 0,0],
[11,15,6,0,0, 0,0, 0,0, 0,0],
[12,4,4,0,0, 0,0, 0,0, 0,0],
[15,5,7,4,7,0,0, 0,0, 0,0],
[31,1,3,1,2,1,1,2,1,0,0],
[12,7,14,7,13,0,0, 0,0, 0,0],
[14,14,9,0,0, 0,0, 0,0, 0,0],
[33,6,9,5,9,5,8,0,0, 0,0],
[11,13,9,0,0, 0,0, 0,0, 0,0],
[23,1,13,2,13,0,0, 0,0, 0,0],
[22,14,1,13,1,0,0, 0,0, 0,0],
[14,15,8,16,8,0,0, 0,0, 0,0],
[2,9,4,0,0, 0,0, 0,0, 0,0],
[62,3,10,3,11,2,10,1,10,1,9],
[27,14,5,14,6,15,5,0,0, 0,0],
[38,12,11,12,10,11,10,10,10,10,11],
[29,8,2,8,3,7,3,0,0, 0,0],
[23,9,5,10,5,10,4,0,0, 0,0],
[23,2,16,2,15,1,15,1,16,0,0],
[10,4,10,4,9,0,0, 0,0, 0,0],
[19,13,8,14,8,0,0, 0,0, 0,0],
[6,3,16,4,16,0,0, 0,0, 0,0],
[24,4,3,5,3,0,0, 0,0, 0,0],
[31,5,6,6,6,6,7,7,6,0,0],
[11,7,1,7,2,0,0, 0,0, 0,0],
[25,7,4,8,4,0,0, 0,0, 0,0],
[17,7,15,7,16,0,0, 0,0, 0,0],
[17,9,3,10,3,11,3,0,0, 0,0],
[39,10,6,11,6,12,6,12,5,11,5],
[35,10,9,11,9,11,8,12,9,0,0],
[13,14,11,0,0, 0,0, 0,0, 0,0],
[21,15,2,15,3,0,0, 0,0, 0,0],
[11,15,10,15,11,0,0, 0,0, 0,0]
]
